4
29
74
40	32
1	3	4	11	21	4	29	3	
2	1	7	12	
3	4	5	12	7	11	8	7	7	4	
4	4	5	11	10	7	9	7	14	6	
5	4	10	7	4	5	27	3	13	3	
6	2	8	10	14	6	
7	3	8	14	16	5	26	4	
8	1	20	4	
9	2	8	14	13	4	
10	3	4	7	7	5	32	4	
11	3	7	6	8	5	30	3	
12	1	32	4	
13	2	7	14	19	3	
14	4	11	7	28	3	21	3	12	3	
15	4	10	7	23	4	14	4	14	4	
16	3	5	5	30	3	15	2	
17	1	26	3	
18	3	6	8	6	5	6	4	
19	2	4	6	14	2	
20	2	14	6	20	2	
21	2	22	4	29	2	
22	2	7	12	8	10	
23	4	5	12	5	8	10	7	11	2	
24	4	6	13	6	8	12	4	21	2	
25	1	22	2	
26	1	20	3	
27	4	10	5	5	5	25	4	19	2	
28	2	8	11	13	2	
29	2	19	4	8	3	
